0000000000000000
0000000000000000
0000000000000000
0011000000000100
0001100000000100
0000110000000100
0000011100000100
0000001111111100
0001111111000000
0001000001100000
0001000000110000
0001000000011000
0001000000001100
0001000000000100
0000000000000000
0000000000000000
